12 32 3 10
17 8 11 20 4 14 19 14 10 9 15 3 16 8 2 2 10 5 2 11 6 1 6 9 14 1 13 5 18 19 4 6 
6.63 7.48 2.74 7.81 0.94 0.69 3.47 4 1.37 3.28 6.55 2.54 7.76 1.31 3.87 0.66 0.66 0.69 0.61 6.95 0.13 1.18 5.68 3.5 2.97 0.47 4.12 3.39 0.75 0.85 0.64 2.9 
0.45 6.89 7.26 1.42 3.57 1.57 7.67 6.09 5.8 4.25 1.21 7.9 3.89 2.19 3.96 7.96 3.2 6.6 5.44 5.33 6.66 1.18 3.69 2.8 2.38 2.9 3.12 0.58 0.05 4.34 4.13 1.35 
7.11 0.89 4.23 4.11 5.19 0.16 1.37 4.55 3.73 3.56 3.04 4.89 3.46 2.09 6.3 1.2 0.43 2.57 5.02 1.57 6.34 7.94 0.91 0.04 7.75 3.6 0.68 6.09 3.46 7.39 7.87 3.55 
4 4 4 4 4 4 4 4 4 4 4 4 4 4 4 4 4 4 4 4 4 4 4 4 4 4 4 4 4 4 4 4 
4.71 5.16 1.24 1.79 4.28 6.75 2 5.82 1.24 2.48 1.56 6.24 3.97 6.52 2.17 3.9 2.13 1.48 3.9 0.63 1.02 1.82 4.81 4.25 7.52 2.25 4.66 2.62 3.74 4.52 7.25 7.6 
3.84 6.44 2.69 3.76 1.05 0.74 6.61 0.61 1.15 2.7 2.34 2.61 2.9 1.45 7.66 3.07 0.36 7.32 5.31 5.91 0.63 4.83 0.34 7.63 5.64 1.74 7.59 4.16 0.95 3.98 1.24 2.21 
5.26 6.7 1.63 3.22 7.49 4.6 3.17 4.27 5.22 7.72 4.43 2.95 6 0.89 2.15 4.58 1.72 0.03 6.71 0.35 5.54 6.33 5.17 5.36 2.7 0.6 0.9 2.57 1.83 4.66 1.1 3.32 
7.54 1.83 6.01 1.72 5.65 0.14 0.84 6.58 3.3 4.49 7.6 4.67 6.32 3.88 5.7 4.26 4.89 1.68 6.59 5.49 5.36 6.4 6.94 7.84 2.95 3.22 0.76 6.08 1.21 2.97 4.58 4.58 
1.87 5.75 1.74 6.41 5.15 7.95 0.71 1.03 1.86 4.62 3.27 6.35 7.79 4.39 0.53 4.4 6.28 4.58 7.08 2.75 3.08 4.7 5.76 3.91 5.82 5.9 6.28 7.11 4.07 6.38 0.15 5.66 
6.55 1.79 1.62 5.02 2.52 7.01 6.03 3.97 5.85 5.88 0.5 6.93 6.24 7.92 3.16 5.92 3.62 6.27 3.5 7.15 0.73 1.56 4.8 2.49 3.77 7.26 6.41 4.78 4.04 4.32 6.41 4.46 
6.27 7.78 7.88 1.4 3.87 4.8 7.15 3.9 2.82 4.91 2.94 7.06 7.36 5.23 3.64 3.18 5.02 2.63 7.12 5.96 2.97 7.07 0.09 2.78 1.5 4.46 2.62 0.27 2.32 3.38 0.59 3.08 
7.11 1.66 6.03 2.56 4.61 0.91 4.06 4.95 2.51 7.14 7.88 5.06 1.62 6.42 3.27 4.23 2.41 5.71 6.15 5.46 0.94 6.91 6.91 5.99 3.2 7.38 5.81 1.82 5.98 6.41 6.57 6.42 
1 1 1 1 1 1 1 1 1 1 1 1 1 1 1 1 1 1 1 1 1 1 1 1 1 1 1 1 1 1 1 1 
1 1 1 1 1 1 1 1 1 1 1 1 1 1 1 1 1 1 1 1 1 1 1 1 1 1 1 1 1 1 1 1 
1 1 1 1 1 1 1 1 1 1 1 1 1 1 1 1 1 1 1 1 1 1 1 1 1 1 1 1 1 1 1 1 
1 1 1 1 1 1 1 1 1 1 1 1 1 1 1 1 1 1 1 1 1 1 1 1 1 1 1 1 1 1 1 1 
1 1 1 1 1 1 1 1 1 1 1 1 1 1 1 1 1 1 1 1 1 1 1 1 1 1 1 1 1 1 1 1 
1 1 1 1 1 1 1 1 1 1 1 1 1 1 1 1 1 1 1 1 1 1 1 1 1 1 1 1 1 1 1 1 
1 1 1 1 1 1 1 1 1 1 1 1 1 1 1 1 1 1 1 1 1 1 1 1 1 1 1 1 1 1 1 1 
1 1 1 1 1 1 1 1 1 1 1 1 1 1 1 1 1 1 1 1 1 1 1 1 1 1 1 1 1 1 1 1 
1 1 1 1 1 1 1 1 1 1 1 1 1 1 1 1 1 1 1 1 1 1 1 1 1 1 1 1 1 1 1 1 
1 1 1 1 1 1 1 1 1 1 1 1 1 1 1 1 1 1 1 1 1 1 1 1 1 1 1 1 1 1 1 1 
1 1 1 1 1 1 1 1 1 1 1 1 1 1 1 1 1 1 1 1 1 1 1 1 1 1 1 1 1 1 1 1 
1 1 1 1 1 1 1 1 1 1 1 1 1 1 1 1 1 1 1 1 1 1 1 1 1 1 1 1 1 1 1 1 
0.01 0.01 0.01 0.01 0.01 0.01 0.01 0.01 0.01 0.01 0.01 0.01 0.01 0.01 0.01 0.01 0.01 0.01 0.01 0.01 0.01 0.01 0.01 0.01 0.01 0.01 0.01 0.01 0.01 0.01 0.01 0.01 
0.02 0.02 0.02 0.02 0.02 0.02 0.02 0.02 0.02 0.02 0.02 0.02 0.02 0.02 0.02 0.02 0.02 0.02 0.02 0.02 0.02 0.02 0.02 0.02 0.02 0.02 0.02 0.02 0.02 0.02 0.02 0.02 
0.03 0.03 0.03 0.03 0.03 0.03 0.03 0.03 0.03 0.03 0.03 0.03 0.03 0.03 0.03 0.03 0.03 0.03 0.03 0.03 0.03 0.03 0.03 0.03 0.03 0.03 0.03 0.03 0.03 0.03 0.03 0.03 
0.04 0.04 0.04 0.04 0.04 0.04 0.04 0.04 0.04 0.04 0.04 0.04 0.04 0.04 0.04 0.04 0.04 0.04 0.04 0.04 0.04 0.04 0.04 0.04 0.04 0.04 0.04 0.04 0.04 0.04 0.04 0.04 
0.125 0.125 0.125 0.125 0.125 0.125 0.125 0.125 0.125 0.125 0.125 0.125 0.125 0.125 0.125 0.125 0.125 0.125 0.125 0.125 0.125 0.125 0.125 0.125 0.125 0.125 0.125 0.125 0.125 0.125 0.125 0.125 
0.25 0.25 0.25 0.25 0.25 0.25 0.25 0.25 0.25 0.25 0.25 0.25 0.25 0.25 0.25 0.25 0.25 0.25 0.25 0.25 0.25 0.25 0.25 0.25 0.25 0.25 0.25 0.25 0.25 0.25 0.25 0.25 
0.375 0.375 0.375 0.375 0.375 0.375 0.375 0.375 0.375 0.375 0.375 0.375 0.375 0.375 0.375 0.375 0.375 0.375 0.375 0.375 0.375 0.375 0.375 0.375 0.375 0.375 0.375 0.375 0.375 0.375 0.375 0.375 
0.5 0.5 0.5 0.5 0.5 0.5 0.5 0.5 0.5 0.5 0.5 0.5 0.5 0.5 0.5 0.5 0.5 0.5 0.5 0.5 0.5 0.5 0.5 0.5 0.5 0.5 0.5 0.5 0.5 0.5 0.5 0.5 
0.625 0.625 0.625 0.625 0.625 0.625 0.625 0.625 0.625 0.625 0.625 0.625 0.625 0.625 0.625 0.625 0.625 0.625 0.625 0.625 0.625 0.625 0.625 0.625 0.625 0.625 0.625 0.625 0.625 0.625 0.625 0.625 
0.75 0.75 0.75 0.75 0.75 0.75 0.75 0.75 0.75 0.75 0.75 0.75 0.75 0.75 0.75 0.75 0.75 0.75 0.75 0.75 0.75 0.75 0.75 0.75 0.75 0.75 0.75 0.75 0.75 0.75 0.75 0.75 
0.875 0.875 0.875 0.875 0.875 0.875 0.875 0.875 0.875 0.875 0.875 0.875 0.875 0.875 0.875 0.875 0.875 0.875 0.875 0.875 0.875 0.875 0.875 0.875 0.875 0.875 0.875 0.875 0.875 0.875 0.875 0.875 
1 1 1 1 1 1 1 1 1 1 1 1 1 1 1 1 1 1 1 1 1 1 1 1 1 1 1 1 1 1 1 1 
